
Gurobi 10.0.1 (linux64) logging started Sun Nov 26 16:06:10 2023

Set parameter LogFile to value "ArtificialInstance/ExperimentV2/S3T4K2/AdSp/gurobi91.txt"
Gurobi Optimizer version 10.0.1 build v10.0.1rc0 (linux64)

CPU model: AMD EPYC 7H12 64-Core Processor, instruction set [SSE2|AVX|AVX2]
Thread count: 128 physical cores, 128 logical processors, using up to 32 threads

Academic license 656792 - for non-commercial use only - registered to b.___@student.vu.nl
Optimize a model with 9000 rows, 8652 columns and 33032 nonzeros
Model fingerprint: 0x12f9e912
Variable types: 0 continuous, 8652 integer (8652 binary)
Coefficient statistics:
  Matrix range     [1e+00, 1e+00]
  Objective range  [1e+00, 2e+01]
  Bounds range     [1e+00, 1e+00]
  RHS range        [1e+00, 1e+00]
Presolve removed 1392 rows and 1415 columns
Presolve time: 0.13s
Presolved: 7608 rows, 7237 columns, 28306 nonzeros
Variable types: 0 continuous, 7237 integer (7237 binary)
Found heuristic solution: objective 401.5123302

Root relaxation: objective 6.548903e+01, 4784 iterations, 0.20 seconds (0.13 work units)

    Nodes    |    Current Node    |     Objective Bounds      |     Work
 Expl Unexpl |  Obj  Depth IntInf | Incumbent    BestBd   Gap | It/Node Time

     0     0   65.48903    0  348  401.51233   65.48903  83.7%     -    0s
H    0     0                     299.6597029   65.48903  78.1%     -    0s
H    0     0                      73.8302008   65.48903  11.3%     -    0s
     0     0   66.90825    0  517   73.83020   66.90825  9.38%     -    0s
H    0     0                      67.9189708   66.90825  1.49%     -    0s
     0     0   67.49580    0    4   67.91897   67.49580  0.62%     -    0s
H    0     0                      67.4957969   67.49580  0.00%     -    0s

Cutting planes:
  Gomory: 9
  MIR: 1
  Zero half: 41

Explored 1 nodes (7731 simplex iterations) in 0.94 seconds (0.55 work units)
Thread count was 32 (of 128 available processors)

Solution count 5: 67.4958 67.919 73.8302 ... 401.512

Optimal solution found (tolerance 1.00e-04)
Best objective 6.749579686829e+01, best bound 6.749579686829e+01, gap 0.0000%
